words_hard_train/1395.qaiger
aag 85 16 0 1 69
2
4
8
12
16
20
24
28
36
44
46
50
54
58
62
136
170
6 2 4
10 6 8
14 10 12
18 14 16
22 18 20
26 23 25
30 27 28
32 26 29
34 31 33
38 35 36
40 19 21
42 41 23
48 45 47
52 48 51
56 52 55
60 56 59
64 61 62
66 60 63
68 65 67
70 42 68
72 15 17
74 73 19
76 57 58
78 77 61
80 74 78
82 71 81
84 11 13
86 85 15
88 53 54
90 89 57
92 87 91
94 75 79
96 93 95
98 9 50
100 99 7
102 2 45
104 103 46
106 104 5
108 100 107
110 108 49
112 49 50
114 113 53
116 7 9
118 117 11
120 114 118
122 111 121
124 86 90
126 122 125
128 96 127
130 82 129
132 22 24
134 133 27
138 67 136
140 66 137
142 139 141
144 134 143
146 131 145
148 43 69
150 146 149
152 135 142
154 151 153
156 155 140
158 39 157
160 154 141
162 34 37
164 161 163
166 158 165
168 38 156
170 167 169
i0 1 x1[0]
i1 1 x1[1]
i2 1 x1[2]
i3 1 x1[3]
i4 1 x1[4]
i5 1 x1[5]
i6 1 x1[6]
i7 1 x1[7]
i8 2 y1[7]
i9 2 y1[0]
i10 2 y1[1]
i11 2 y1[2]
i12 2 y1[3]
i13 2 y1[4]
i14 2 y1[5]
i15 2 y1[6]
o0 bv[0]
c
simplified
  <=
    2 y1
    add
      add
        1 x1
        << 6
          233
      1
