words_hard_train/1395.qaiger.qdimacs
p cnf 85 208
a 1 2 4 6 8 10 12 14 0
e 3 5 7 9 11 13 15 16 17 18 19 20 21 22 23 24 25 26 27 28 29 30 31 32 33 34 35 36 37 38 39 40 41 42 43 44 45 46 47 48 49 50 51 52 53 54 55 56 57 58 59 60 61 62 63 64 65 66 67 68 69 70 71 72 73 74 75 76 77 78 79 80 81 82 83 84 85 0
-1 -2 3 0
1 -3 0
2 -3 0
-3 -4 5 0
3 -5 0
4 -5 0
-5 -6 7 0
5 -7 0
6 -7 0
-7 -8 9 0
7 -9 0
8 -9 0
-9 -10 11 0
9 -11 0
10 -11 0
11 12 13 0
-11 -13 0
-12 -13 0
13 -14 15 0
-13 -15 0
14 -15 0
-13 14 16 0
13 -16 0
-14 -16 0
15 16 17 0
-15 -17 0
-16 -17 0
17 -18 19 0
-17 -19 0
18 -19 0
9 10 20 0
-9 -20 0
-10 -20 0
20 11 21 0
-20 -21 0
-11 -21 0
22 23 24 0
-22 -24 0
-23 -24 0
-24 25 26 0
24 -26 0
-25 -26 0
-26 27 28 0
26 -28 0
-27 -28 0
-28 29 30 0
28 -30 0
-29 -30 0
30 -31 32 0
-30 -32 0
31 -32 0
-30 31 33 0
30 -33 0
-31 -33 0
32 33 34 0
-32 -34 0
-33 -34 0
-21 -34 35 0
21 -35 0
34 -35 0
7 8 36 0
-7 -36 0
-8 -36 0
36 9 37 0
-36 -37 0
-9 -37 0
28 -29 38 0
-28 -38 0
29 -38 0
38 30 39 0
-38 -39 0
-30 -39 0
-37 -39 40 0
37 -40 0
39 -40 0
35 40 41 0
-35 -41 0
-40 -41 0
5 6 42 0
-5 -42 0
-6 -42 0
42 7 43 0
-42 -43 0
-7 -43 0
26 -27 44 0
-26 -44 0
27 -44 0
44 28 45 0
-44 -45 0
-28 -45 0
43 45 46 0
-43 -46 0
-45 -46 0
37 39 47 0
-37 -47 0
-39 -47 0
46 47 48 0
-46 -48 0
-47 -48 0
4 -25 49 0
-4 -49 0
25 -49 0
49 3 50 0
-49 -50 0
-3 -50 0
-1 22 51 0
1 -51 0
-22 -51 0
51 -23 52 0
-51 -52 0
23 -52 0
-52 2 53 0
52 -53 0
-2 -53 0
-50 53 54 0
50 -54 0
-53 -54 0
-54 24 55 0
54 -55 0
-24 -55 0
24 -25 56 0
-24 -56 0
25 -56 0
56 26 57 0
-56 -57 0
-26 -57 0
3 4 58 0
-3 -58 0
-4 -58 0
58 5 59 0
-58 -59 0
-5 -59 0
-57 -59 60 0
57 -60 0
59 -60 0
55 60 61 0
-55 -61 0
-60 -61 0
-43 -45 62 0
43 -62 0
45 -62 0
-61 62 63 0
61 -63 0
-62 -63 0
-48 63 64 0
48 -64 0
-63 -64 0
-41 64 65 0
41 -65 0
-64 -65 0
-11 -12 66 0
11 -66 0
12 -66 0
66 13 67 0
-66 -67 0
-13 -67 0
33 -68 69 0
-33 -69 0
68 -69 0
-33 68 70 0
33 -70 0
-68 -70 0
69 70 71 0
-69 -71 0
-70 -71 0
-67 71 72 0
67 -72 0
-71 -72 0
65 72 73 0
-65 -73 0
-72 -73 0
21 34 74 0
-21 -74 0
-34 -74 0
-73 74 75 0
73 -75 0
-74 -75 0
67 -71 76 0
-67 -76 0
71 -76 0
75 76 77 0
-75 -77 0
-76 -77 0
77 -70 78 0
-77 -78 0
70 -78 0
19 78 79 0
-19 -79 0
-78 -79 0
-77 70 80 0
77 -80 0
-70 -80 0
-17 18 81 0
17 -81 0
-18 -81 0
80 81 82 0
-80 -82 0
-81 -82 0
-79 82 83 0
79 -83 0
-82 -83 0
-19 -78 84 0
19 -84 0
78 -84 0
83 84 85 0
-83 -85 0
-84 -85 0
85 0
